c b=2,c=143
p cnf 11 23
1 2 -4 0
1 2 -5 0
1 2 -6 0
2 -7 0
2 -11 0
1 -2 4 0
-2 5 0
-2 6 0
1 -2 7 0
-2 11 0
1 -3 0
1 -8 0
1 -10 0
-1 2 4 0
2 -8 0
-1 -2 -4 0
-1 -2 8 0
-1 3 0
-1 5 0
-1 6 0
-1 -7 0
-1 10 0
-9 0
